$ WAVEWATCH III Grid preprocessor input file
$ ------------------------------------------
  'WAVE DATA ASSIMILATION TEST   '
$
   1.1 0.04123  30 36  0.5
$
   F T T F F F
  900.  900.  900.  900.
$
  &PSMC DTIMS=17000.0, LvSMC=4 /
  &WDA1 METHOD = 1 /
END OF NAMELISTS
$
  'SMCG' T 'NONE'
  62  62
    0.16   0.16  1.
    0.00   0.00  1.
$
   -0.1  10.0  30   -1. 1 1 '(....)' 'NAME' '../input_smc/DA1Depth.dat'
$
  32  1  1  '(....)'  '../input_smc/DA1Cell.dat'
  33  1  1  '(....)'  '../input_smc/DA1ISide.dat'
  34  1  1  '(....)'  '../input_smc/DA1JSide.dat'
  31  1  1  '(....)'  '../input_smc/DA1Obs.dat'
$
  36  1  1  '(....)'  'NAME'  '../input_smc/DA1Masks.dat'
$
     0.    0.    0.    0.      0
$
