$ WAVEWATCH III shel input file
 F F   Water levels
 F F   Currents
 F F   Winds
 F F   Ice concentrations
 F F   Atmospheric momentum
 F F   Air density
 T     Assimilation data : Mean parameters
 F     Assimilation data : 1-D spectra
 F     Assimilation data : 2-D spectra
$
$ Time frame of calculations ----------------------------------------- $
$ - Starting time in yyyymmdd hhmmss format.
$ - Ending time in yyyymmdd hhmmss format.
$
  19680606 000000
  19680607 120000
$
  2
$
  19680606 000000 3600 19680608 000000
  N
  HS DP DIR FP T01
  19680606 000000    0 19680608 000000
  19680606 000000    0 19680608 000000
  19680606 000000    0 19680608 000000
  19680606 000000    0 19680608 000000
  19680606 000000    0 19680608 000000
  19680606 000000    0 19680608 000000
  'STP'
$
