$ WAVEWATCH III shel input file
 F F   Water levels
 F F   Currents
 T T   Winds
 F F   Ice concentrations
 F F   Atmospheric momentum
 F F   Air density
 T     Assimilation data : Mean parameters
 F     Assimilation data : 1-D spectra
 F     Assimilation data : 2-D spectra
$
$ Time frame of calculations
  19680606 000000
  19680607 000000
$
  1
$ Outputs
  19680606 000000 3600 19680608 000000
  N
  HS DP DIR FP T01 T02
  19680606 000000 3600 19680608 000000
     0.0   0.0  'The_point'
     0.0   0.0  'STOPSTRING'
  19680606 000000    0 19680608 000000
  19680606 000000    0 19680608 000000
  19680606 000000    0 19680608 000000
  19680606 000000    0 19680608 000000
$
$ Homogeneous field data
  'WND' 19680606 000000 12. 340. 2.0
  'WND' 19680608 000000 12. 340. 2.0
  'STP'
$
